
Gurobi 7.5.2 (linux64) logging started Sat Jun 23 16:25:59 2018

Changed value of parameter LogFile to result/ilp/simNo_2-n_100-m_40-s_4-minVAF_0.05-cov_2000-k_1-fn_0.15-fp_0.0001-na_0.15.ILP.gurobiSolverLog
   Prev: gurobi.log  Default: 
Changed value of parameter TimeLimit to 86400.0
   Prev: 1e+100  Min: 0.0  Max: 1e+100  Default: 1e+100
Optimize a model with 1265601 rows, 330440 columns and 3489120 nonzeros
Variable types: 0 continuous, 330440 integer (330440 binary)
Coefficient statistics:
  Matrix range     [2e-03, 3e+00]
  Objective range  [1e+00, 1e+01]
  Bounds range     [1e+00, 1e+00]
  RHS range        [2e-01, 2e+00]
Found heuristic solution: objective -18990.32833
Presolve removed 300571 rows and 207691 columns (presolve time = 5s) ...
Presolve removed 301441 rows and 207691 columns (presolve time = 10s) ...
Presolve removed 302278 rows and 207691 columns (presolve time = 15s) ...
Presolve removed 302278 rows and 207691 columns (presolve time = 20s) ...
Presolve removed 302278 rows and 207691 columns (presolve time = 26s) ...
Presolve removed 302278 rows and 207691 columns (presolve time = 30s) ...
Presolve removed 302278 rows and 207691 columns (presolve time = 39s) ...
Presolve removed 302278 rows and 207691 columns (presolve time = 41s) ...
Presolve removed 302278 rows and 207691 columns
Presolve time: 40.97s
Presolved: 963323 rows, 122749 columns, 2669389 nonzeros
Variable types: 0 continuous, 122749 integer (122749 binary)
Presolve removed 0 rows and 0 columns (presolve time = 5s) ...
Presolved: 122749 rows, 1086072 columns, 2792138 nonzeros

Presolve removed 122749 rows and 1086072 columns

Root simplex log...

Iteration    Objective       Primal Inf.    Dual Inf.      Time
       0    1.1641179e+01   0.000000e+00   1.194620e+05     55s
   14670   -3.0201178e+02   0.000000e+00   1.115100e+05     60s
   25254   -3.5140436e+02   0.000000e+00   4.760172e+05     65s
   34662   -3.7863884e+02   0.000000e+00   3.089131e+05     70s
   44070   -4.0384963e+02   0.000000e+00   2.576760e+05     75s
   52302   -4.1727878e+02   0.000000e+00   1.115991e+06     81s
   59946   -4.2844239e+02   0.000000e+00   6.481863e+04     85s
   68178   -4.4692506e+02   0.000000e+00   4.234737e+04     90s
   78762   -4.6404175e+02   0.000000e+00   2.820025e+04     95s
   79231   -4.6441509e+02   0.000000e+00   0.000000e+00     97s
   79231   -4.6441509e+02   0.000000e+00   0.000000e+00     99s

Root relaxation: objective -4.644151e+02, 79231 iterations, 55.08 seconds
Total elapsed time = 101.68s
Total elapsed time = 162.53s
Total elapsed time = 191.76s
Total elapsed time = 227.86s

    Nodes    |    Current Node    |     Objective Bounds      |     Work
 Expl Unexpl |  Obj  Depth IntInf | Incumbent    BestBd   Gap | It/Node Time

     0     0 -464.41509    0 1861 -18990.328 -464.41509  97.6%     -  237s
H    0     0                    -557.4949797 -464.41509  16.7%     -  440s
     0     0 -469.01618    0 1862 -557.49498 -469.01618  15.9%     -  509s
     0     0 -469.24623    0 1861 -557.49498 -469.24623  15.8%     -  523s
     0     0 -472.46699    0 1865 -557.49498 -472.46699  15.3%     -  550s
     0     0 -472.50606    0 1866 -557.49498 -472.50606  15.2%     -  675s
     0     0 -474.34649    0 1859 -557.49498 -474.34649  14.9%     -  706s
     0     0 -474.74087    0 1865 -557.49498 -474.74087  14.8%     -  774s
     0     0 -474.74087    0 1867 -557.49498 -474.74087  14.8%     -  783s
     0     0 -476.18693    0 1851 -557.49498 -476.18693  14.6%     -  814s
     0     0 -476.18693    0 1850 -557.49498 -476.18693  14.6%     -  948s
     0     0 -476.18693    0 1864 -557.49498 -476.18693  14.6%     -  965s
     0     0 -476.64703    0 1866 -557.49498 -476.64703  14.5%     - 1096s
     0     0 -476.64703    0 1866 -557.49498 -476.64703  14.5%     - 1105s
     0     0 -478.21835    0 1856 -557.49498 -478.21835  14.2%     - 1294s
     0     0 -478.21835    0 1857 -557.49498 -478.21835  14.2%     - 1333s
     0     0 -479.94375    0 1861 -557.49498 -479.94375  13.9%     - 1368s
     0     0 -479.94375    0 1863 -557.49498 -479.94375  13.9%     - 1378s
     0     0 -480.86397    0 1941 -557.49498 -480.86397  13.7%     - 1411s
     0     0 -481.47745    0 1944 -557.49498 -481.47745  13.6%     - 1503s
     0     0 -481.47745    0 1949 -557.49498 -481.47745  13.6%     - 1513s
     0     0 -481.55413    0 1955 -557.49498 -481.55413  13.6%     - 1540s
     0     0 -481.73818    0 1963 -557.49498 -481.73818  13.6%     - 1704s
     0     0 -481.75863    0 1966 -557.49498 -481.75863  13.6%     - 1714s
     0     0 -481.77499    0 1968 -557.49498 -481.77499  13.6%     - 1725s
     0     0 -481.77499    0 1969 -557.49498 -481.77499  13.6%     - 1733s
     0     0 -483.96970    0 1965 -557.49498 -483.96970  13.2%     - 1777s
     0     0 -483.96970    0 1967 -557.49498 -483.96970  13.2%     - 1920s
     0     0 -485.23500    0 1866 -557.49498 -485.23500  13.0%     - 1955s
     0     0 -485.58008    0 1868 -557.49498 -485.58008  12.9%     - 2148s
     0     0 -487.39922    0 1857 -557.49498 -487.39922  12.6%     - 2180s
     0     0 -487.43330    0 1856 -557.49498 -487.43330  12.6%     - 2320s
     0     0 -487.43330    0 1859 -557.49498 -487.43330  12.6%     - 2328s
     0     0 -488.33946    0 1860 -557.49498 -488.33946  12.4%     - 2357s
     0     0 -488.76250    0 1857 -557.49498 -488.76250  12.3%     - 2369s
     0     0 -489.06924    0 1863 -557.49498 -489.06924  12.3%     - 2379s
     0     0 -489.06924    0 1856 -557.49498 -489.06924  12.3%     - 2389s
     0     0 -489.98946    0 1859 -557.49498 -489.98946  12.1%     - 2422s
     0     0 -490.10448    0 1853 -557.49498 -490.10448  12.1%     - 2543s
     0     0 -490.10448    0 1853 -557.49498 -490.10448  12.1%     - 2555s
     0     0 -491.44647    0 1864 -557.49498 -491.44647  11.8%     - 2598s
     0     0 -491.44647    0 1866 -557.49498 -491.44647  11.8%     - 2745s
     0     0 -493.40193    0 1884 -557.49498 -493.40193  11.5%     - 2786s
     0     0 -493.67032    0 1898 -557.49498 -493.67032  11.4%     - 2837s
     0     0 -493.68949    0 1902 -557.49498 -493.68949  11.4%     - 2851s
     0     0 -493.68949    0 1899 -557.49498 -493.68949  11.4%     - 2861s
     0     0 -494.67768    0 1877 -557.49498 -494.67768  11.3%     - 2895s
     0     0 -495.43955    0 1894 -557.49498 -495.43955  11.1%     - 2919s
     0     0 -495.43955    0 1898 -557.49498 -495.43955  11.1%     - 2931s
     0     0 -496.11145    0 1892 -557.49498 -496.11145  11.0%     - 2964s
     0     0 -496.54600    0 1894 -557.49498 -496.54600  10.9%     - 3069s
     0     0 -496.62269    0 1895 -557.49498 -496.62269  10.9%     - 3084s
     0     0 -496.64038    0 1862 -557.49498 -496.64038  10.9%     - 3099s
     0     0 -496.64038    0 1871 -557.49498 -496.64038  10.9%     - 3109s
     0     0 -497.38186    0 1899 -557.49498 -497.38186  10.8%     - 3164s
     0     0 -497.91263    0 1899 -557.49498 -497.91263  10.7%     - 3216s
     0     0 -497.91263    0 1904 -557.49498 -497.91263  10.7%     - 3225s
     0     0 -499.26831    0 1890 -557.49498 -499.26831  10.4%     - 3264s
     0     0 -499.72842    0 1890 -557.49498 -499.72842  10.4%     - 3358s
     0     0 -499.72842    0 1894 -557.49498 -499.72842  10.4%     - 3367s
     0     0 -499.72842    0 1887 -557.49498 -499.72842  10.4%     - 3403s
     0     0 -500.18853    0 1881 -557.49498 -500.18853  10.3%     - 3537s
     0     0 -500.28055    0 1889 -557.49498 -500.28055  10.3%     - 3554s
     0     0 -500.28055    0 1880 -557.49498 -500.28055  10.3%     - 3567s
     0     0 -500.99372    0 1845 -557.49498 -500.99372  10.1%     - 3613s
     0     0 -501.25572    0 1860 -557.49498 -501.25572  10.1%     - 3747s
     0     0 -502.37404    0 1861 -557.49498 -502.37404  9.89%     - 3782s
     0     0 -502.83415    0 1862 -557.49498 -502.83415  9.80%     - 3798s
     0     0 -502.83415    0 1861 -557.49498 -502.83415  9.80%     - 3807s
     0     0 -504.46257    0 1864 -557.49498 -504.46257  9.51%     - 3861s
     0     0 -504.80604    0 1872 -557.49498 -504.80604  9.45%     - 3993s
     0     0 -504.90464    0 1867 -557.49498 -504.90464  9.43%     - 4006s
     0     0 -504.90464    0 1867 -557.49498 -504.90464  9.43%     - 4015s
     0     0 -506.51502    0 1855 -557.49498 -506.51502  9.14%     - 4057s
     0     0 -506.74507    0 1866 -557.49498 -506.74507  9.10%     - 4154s
     0     0 -506.74507    0 1867 -557.49498 -506.74507  9.10%     - 4165s
     0     0 -507.97203    0 1853 -557.49498 -507.97203  8.88%     - 4209s
     0     0 -507.97203    0 1872 -557.49498 -507.97203  8.88%     - 4334s
     0     0 -509.81246    0 1876 -557.49498 -509.81246  8.55%     - 4384s
     0     0 -509.81246    0 1990 -557.49498 -509.81246  8.55%     - 4406s
     0     0 -510.51078    0 1877 -557.49498 -510.51078  8.43%     - 4464s
     0     0 -510.90904    0 1976 -557.49498 -510.90904  8.36%     - 4657s
     0     0 -510.91596    0 1896 -557.49498 -510.91596  8.36%     - 4671s
     0     0 -511.01896    0 1895 -557.49498 -511.01896  8.34%     - 4689s
     0     0 -511.03634    0 1889 -557.49498 -511.03634  8.33%     - 4705s
     0     0 -511.03634    0 1891 -557.49498 -511.03634  8.33%     - 4716s
     0     0 -511.19279    0 1881 -557.49498 -511.19279  8.31%     - 4751s
     0     0 -512.26637    0 1874 -557.49498 -512.26637  8.11%     - 4777s
     0     0 -512.37065    0 1893 -557.49498 -512.37065  8.09%     - 4797s
     0     0 -512.38961    0 1883 -557.49498 -512.38961  8.09%     - 4815s
     0     0 -512.39909    0 1884 -557.49498 -512.39909  8.09%     - 4831s
     0     0 -512.42715    0 1885 -557.49498 -512.42715  8.08%     - 4846s
     0     0 -512.44065    0 1890 -557.49498 -512.44065  8.08%     - 4862s
     0     0 -512.44274    0 1887 -557.49498 -512.44274  8.08%     - 4874s
     0     0 -512.51941    0 1884 -557.49498 -512.51941  8.07%     - 4913s
     0     0 -512.61145    0 1882 -557.49498 -512.61145  8.05%     - 4948s
     0     0 -512.61473    0 1884 -557.49498 -512.61473  8.05%     - 4968s
     0     0 -512.61911    0 1878 -557.49498 -512.61911  8.05%     - 5005s
     0     0 -512.61911    0 1871 -557.49498 -512.61911  8.05%     - 5066s
     0     0 -513.30927    0 1862 -557.49498 -513.30927  7.93%     - 5108s
     0     0 -513.30927    0 1862 -557.49498 -513.30927  7.93%     - 5243s
     0     0 -514.10681    0 1829 -557.49498 -514.10681  7.78%     - 5372s
     0     0 -514.31561    0 1809 -557.49498 -514.31561  7.75%     - 5483s
     0     0 -514.56692    0 1793 -557.49498 -514.56692  7.70%     - 5507s
     0     0 -514.56692    0 1822 -557.49498 -514.56692  7.70%     - 5522s
     0     0 -514.80845    0 1810 -557.49498 -514.80845  7.66%     - 5610s
     0     0 -515.24685    0 1808 -557.49498 -515.24685  7.58%     - 5864s
     0     0 -515.40471    0 1811 -557.49498 -515.40471  7.55%     - 5910s
     0     0 -515.45561    0 1820 -557.49498 -515.45561  7.54%     - 5932s
     0     0 -515.45561    0 1812 -557.49498 -515.45561  7.54%     - 5944s
     0     0 -516.19675    0 1816 -557.49498 -516.19675  7.41%     - 5985s
     0     0 -516.24055    0 1818 -557.49498 -516.24055  7.40%     - 6120s
     0     0 -516.25111    0 1820 -557.49498 -516.25111  7.40%     - 6132s
     0     0 -516.26193    0 1836 -557.49498 -516.26193  7.40%     - 6150s
     0     0 -516.26372    0 1826 -557.49498 -516.26372  7.40%     - 6162s
     0     0 -517.26079    0 1820 -557.49498 -517.26079  7.22%     - 6227s
     0     0 -517.36113    0 1811 -557.49498 -517.36113  7.20%     - 6388s
     0     0 -517.37561    0 1828 -557.49498 -517.37561  7.20%     - 6404s
     0     0 -517.37953    0 1825 -557.49498 -517.37953  7.20%     - 6417s
     0     0 -517.72630    0 1807 -557.49498 -517.72630  7.13%     - 6473s
     0     0 -517.75698    0 1791 -557.49498 -517.75698  7.13%     - 6564s
     0     0 -517.75698    0 1805 -557.49498 -517.75698  7.13%     - 6575s
     0     0 -517.75698    0 1805 -557.49498 -517.75698  7.13%     - 6599s
     0     0 -517.75698    0 1808 -557.49498 -517.75698  7.13%     - 6671s
     0     0 -517.89709    0 1792 -557.49498 -517.89709  7.10%     - 6988s
     0     0 -517.96148    0 1785 -557.49498 -517.96148  7.09%     - 7121s
     0     0 -517.96148    0 1785 -557.49498 -517.96148  7.09%     - 7132s
     0     0 -518.48472    0 1802 -557.49498 -518.48472  7.00%     - 7260s
     0     0 -518.57495    0 1800 -557.49498 -518.57495  6.98%     - 7388s
     0     0 -518.57495    0 1803 -557.49498 -518.57495  6.98%     - 7404s
     0     0 -518.65057    0 1812 -557.49498 -518.65057  6.97%     - 7441s
     0     0 -518.80866    0 1789 -557.49498 -518.80866  6.94%     - 7528s
     0     0 -518.83057    0 1798 -557.49498 -518.83057  6.94%     - 7541s
     0     0 -518.83057    0 1798 -557.49498 -518.83057  6.94%     - 7549s
     0     0 -518.84237    0 1800 -557.49498 -518.84237  6.93%     - 7577s
     0     0 -518.98183    0 1792 -557.49498 -518.98183  6.91%     - 7713s
     0     0 -518.98394    0 1807 -557.49498 -518.98394  6.91%     - 7729s
     0     0 -518.98394    0 1796 -557.49498 -518.98394  6.91%     - 7763s
     0     0 -518.98394    0 1801 -557.49498 -518.98394  6.91%     - 7841s
     0     0 -518.98394    0 1790 -557.49498 -518.98394  6.91%     - 7864s
     0     0 -518.98394    0 1766 -557.49498 -518.98394  6.91%     - 8072s
     0     2 -518.98465    0 1766 -557.49498 -518.98465  6.91%     - 8303s
     1     3 -520.99304    1 1118 -557.49498 -518.98465  6.91%  8055 8351s
     2     4 -521.83658    2 1123 -557.49498 -518.98465  6.91%  4574 8366s
     3     5 -553.76391    2  681 -557.49498 -518.98465  6.91%  9353 8578s
     4     6 -522.52674    3 1100 -557.49498 -518.98465  6.91%  7154 8586s
     5     5     cutoff    3      -557.49498 -518.98465  6.91%  9763 8763s
     6     6 -523.44696    4 1036 -557.49498 -518.98465  6.91%  8212 8769s
     7     7 -548.26771    4  729 -557.49498 -518.98465  6.91%  8928 8886s
     9     9 -524.36717    6 1025 -557.49498 -518.98465  6.91%  6994 8895s
    10     8     cutoff    6      -557.49498 -518.98465  6.91%  8350 9069s
    11     9 -525.28739    7 1020 -557.49498 -518.98465  6.91%  7650 9075s
    13    11 -550.31310    8  749 -557.49498 -518.98465  6.91%  7685 9186s
    15    13 -526.20761   10  936 -557.49498 -518.98465  6.91%  6683 9193s
    16    12     cutoff   10      -557.49498 -518.98465  6.91%  7038 9292s
    17    13 -527.12782   11  940 -557.49498 -518.98465  6.91%  6652 9297s
    18    12     cutoff   11      -557.49498 -518.98465  6.91%  6940 9376s
    20    14 -528.04804   13  844 -557.49498 -518.98465  6.91%  6266 9382s
    21    15 -557.14640   13  655 -557.49498 -518.98465  6.91%  6835 9503s
    22    16 -528.96826   14  843 -557.49498 -518.98465  6.91%  6540 9507s
    23    17 -546.45238   14  683 -557.49498 -518.98465  6.91%  6643 9573s
    24    18 -529.88847   15  842 -557.49498 -518.98465  6.91%  6375 9577s
    25    19 -555.62944   15  667 -557.49498 -518.98465  6.91%  6472 9639s
    26    20 -529.88847   16  843 -557.49498 -518.98465  6.91%  6225 9641s
    27    21 -530.80869   17  841 -557.49498 -518.98465  6.91%  6006 9652s
    29    23 -531.72891   19  833 -557.49498 -518.98465  6.91%  5603 9659s
    30    24 -532.18902   20  845 -557.49498 -518.98465  6.91%  5422 9661s
    31    25 -557.41967   20  426 -557.49498 -518.98465  6.91%  5447 9702s
    32    26 -532.64912   21  840 -557.49498 -518.98465  6.91%  5284 9705s
    33    27 -556.52456   21  544 -557.49498 -518.98465  6.91%  5454 9788s
    34    28 -532.64912   22  923 -557.49498 -518.98465  6.91%  5298 9790s
    35    29 -552.89390   22  515 -557.49498 -518.98465  6.91%  5371 9850s
    37    31 -547.37259   23  750 -557.49498 -518.98465  6.91%  5297 9902s
    38    32 -534.48956   24  901 -557.49498 -518.98465  6.91%  5165 9905s
    39    33 -554.70923   24  613 -557.49498 -518.98465  6.91%  5205 9957s
    41    35 -534.48956   26  905 -557.49498 -518.98465  6.91%  4952 9960s
    44    38 -536.32999   29  766 -557.49498 -518.98465  6.91%  4622 9966s
    45    39 -550.08304   29  652 -557.49498 -518.98465  6.91%  4589 9990s
    46    40 -537.25021   30  825 -557.49498 -518.98465  6.91%  4502 9995s
    49    43 -538.17043   33  759 -557.49498 -518.98465  6.91%  4231 10001s
    50    42     cutoff   33      -557.49498 -518.98465  6.91%  4258 10035s
    52    44 -540.01086   35  682 -557.49498 -518.98465  6.91%  4100 10040s
    53    43     cutoff   35      -557.49498 -518.98465  6.91%  4055 10053s
    54    44 -540.93108   36  621 -557.49498 -518.98465  6.91%  3980 10055s
    55    43     cutoff   36      -557.49498 -518.98465  6.91%  3992 10089s
    56    44 -540.93108   37  614 -557.49498 -518.98465  6.91%  3921 10090s
    58    46 -542.77151   39  611 -557.49498 -518.98465  6.91%  3792 10095s
    60    46     cutoff   40      -557.49498 -518.98465  6.91%  3677 10104s
    61    47 -543.69173   41  544 -557.49498 -518.98465  6.91%  3617 10105s
    63    47     cutoff   42      -557.49498 -518.98465  6.91%  3518 10112s
    64    48 -544.61194   43  542 -557.49498 -518.98465  6.91%  3466 10115s
    66    48 -544.61194   44  542 -557.49498 -518.98465  6.91%  3368 10120s
    69    49 -545.53216   46  585 -557.49498 -518.98465  6.91%  3231 10126s
    70    50 -556.57476   46  526 -557.49498 -518.98465  6.91%  3198 10134s
    72    48     cutoff   47      -557.49498 -518.98465  6.91%  3110 10135s
    74    48     cutoff   47      -557.49498 -518.98465  6.91%  3037 10142s
    77    49     cutoff   49      -557.49498 -518.98465  6.91%  2930 10151s
    79    49     cutoff   50      -557.49498 -518.98465  6.91%  2866 10160s
    81    51 -549.21303   52  478 -557.49498 -518.98465  6.91%  2799 10165s
    82    50     cutoff   52      -557.49498 -518.98465  6.91%  2771 10170s
    84    52 -550.13324   54  507 -557.49498 -518.98465  6.91%  2708 10175s
    89    57 -552.89390   59  450 -557.49498 -518.98465  6.91%  2559 10181s
    92    58 -553.81411   61  465 -557.49498 -518.98465  6.91%  2478 10185s
    99    59 -556.57476   65  460 -557.49498 -518.98465  6.91%  2305 10190s
   103    57 -526.11058    1 1973 -557.49498 -523.44696  6.11%  2337 10289s
   104    58 -534.54172    2 2115 -557.49498 -523.44696  6.11%  2373 10371s
   105    59 -536.53850    3 1312 -557.49498 -523.44696  6.11%  2391 10404s
   106    60 -536.53853    4 1318 -557.49498 -523.44696  6.11%  2370 10406s
   107    61 -536.53882    5 1314 -557.49498 -523.44696  6.11%  2352 10411s
   108    62 -537.20113    6 1319 -557.49498 -523.44696  6.11%  2341 10432s
   110    64 -537.20123    8 1320 -557.49498 -523.44696  6.11%  2303 10436s
   111    65 -537.86386    9 1310 -557.49498 -523.44696  6.11%  2293 10457s
   112    66 -538.44314   10 2168 -557.49498 -523.44696  6.11%  2283 10473s
   113    67 -546.23205   10 1303 -557.49498 -523.44696  6.11%  2303 10503s
   114    68 -549.29944   11 1295 -557.49498 -523.44696  6.11%  2291 10515s
   115    69 -551.75335   12 1272 -557.49498 -523.44696  6.11%  2278 10523s
   116    70 -553.59379   13 1253 -557.49498 -523.44696  6.11%  2261 10528s
   117    71 -555.42167   14 1163 -557.49498 -523.44696  6.11%  2244 10533s
   119    73 -556.81455   16 1074 -557.49498 -523.44696  6.11%  2206 10535s
   124    70 -539.09064    5  887 -557.49498 -524.36717  5.94%  2195 10603s
   125    71 -540.90597    6  871 -557.49498 -524.36717  5.94%  2185 10614s
   126    72 -555.62944    6  357 -557.49498 -524.36717  5.94%  2224 10661s
   127    73 -551.00326    7  620 -557.49498 -524.36717  5.94%  2245 10695s
   128    74 -553.76391    8  597 -557.49498 -524.36717  5.94%  2231 10701s
   129    75 -554.68413    9  534 -557.49498 -524.36717  5.94%  2215 10705s
   131    75     cutoff   10      -557.49498 -524.36717  5.94%  2183 10710s
   134    78 -556.52456   13  555 -557.49498 -524.36717  5.94%  2136 10716s
   136    78 -557.44478   14  448 -557.49498 -524.36717  5.94%  2107 10721s
   140    76 -556.54966    7  595 -557.49498 -525.28739  5.78%  2102 10785s
   142    75     cutoff    8      -557.49498 -525.28739  5.78%  2076 10790s
   145    73     cutoff    9      -557.49498 -526.24074  5.61%  2112 10877s
   146    74 -545.40936    2 1439 -557.49498 -527.12782  5.45%  2134 10943s
   147    75 -547.86327    3 1404 -557.49498 -527.12782  5.45%  2128 10959s
   148    74     cutoff    3      -557.49498 -527.12782  5.45%  2126 10978s
   149    75 -550.31718    4 1382 -557.49498 -527.12782  5.45%  2117 10988s
   150    76 -552.15762    5 1288 -557.49498 -527.12782  5.45%  2107 10995s
   151    77 -554.44561    6 1280 -557.49498 -527.12782  5.45%  2097 11002s
   153    79 -556.75870    8 1254 -557.49498 -527.12782  5.45%  2072 11007s
   157    75     cutoff    7      -557.49498 -527.12782  5.45%  2021 11010s
   158    74     cutoff   12      -557.49498 -529.88847  4.95%  2087 11103s
   159    75 -556.54966   16  497 -557.49498 -529.93486  4.94%  2145 11193s
   161    73     cutoff   17      -557.49498 -529.93486  4.94%  2120 11196s
   162    74 -551.02836   17  577 -557.49498 -530.80869  4.79%  2184 11293s
   163    75 -555.60434   18  552 -557.49498 -530.80869  4.79%  2174 11301s
   164    76 -557.44478   19  496 -557.49498 -530.80869  4.79%  2162 11305s
   168    74 -551.05346   18  615 -557.49498 -530.80869  4.79%  2114 11312s
   169    75 -551.97368   19  615 -557.49498 -530.80869  4.79%  2103 11317s
   171    77 -552.89390   21  550 -557.49498 -530.80869  4.79%  2079 11321s
   173    79 -555.65455   23  490 -557.49498 -530.80869  4.79%  2057 11328s
   174    80 -556.57476   24  427 -557.49498 -530.80869  4.79%  2046 11330s
   180    78 -554.73433   18  520 -557.49498 -530.99145  4.75%  2016 11380s
   181    77     cutoff   19      -557.49498 -530.99145  4.75%  2009 11388s
   182    76 -557.46988   19  528 -557.49498 -530.99145  4.75%  2001 11397s
   183    75     cutoff   19      -557.49498 -534.48956  4.13%  2055 11476s
   184    74     cutoff   25      -557.49498 -534.48956  4.13%  2091 11530s
   185    73     cutoff   27      -557.49498 -534.48956  4.13%  2096 11556s
   186    74 -552.89390   26  665 -557.49498 -534.54404  4.12%  2111 11592s
   187    75 -553.81411   27  612 -557.49498 -534.54404  4.12%  2100 11596s
   190    78 -554.73433   30  593 -557.49498 -534.54404  4.12%  2069 11603s
   192    80 -555.65455   32  530 -557.49498 -534.54404  4.12%  2048 11607s
   194    80 -556.57476   33  431 -557.49498 -534.54404  4.12%  2028 11610s
   198    78 -556.12058    3 1315 -557.49498 -535.59334  3.93%  2005 11648s
   199    77     cutoff    4      -557.49498 -535.59334  3.93%  2005 11659s
   200    76     cutoff    4      -557.49498 -535.59334  3.93%  1997 11662s
   201    75     cutoff   28      -557.49498 -536.32999  3.80%  1992 11671s
   202    74     cutoff   30      -557.49498 -536.53894  3.76%  2008 11702s
   203    75 -542.25597    4 1214 -557.49498 -536.53913  3.76%  2027 11750s
   204    76 -544.70988    5 1208 -557.49498 -536.53913  3.76%  2023 11765s
   205    77 -547.16380    6 1187 -557.49498 -536.53913  3.76%  2018 11779s
   206    78 -548.69749    7 1093 -557.49498 -536.53913  3.76%  2010 11785s
   208    80 -553.65662    9 1067 -557.49498 -536.53913  3.76%  1996 11797s
   210    82 -555.44575   11  981 -557.49498 -536.53913  3.76%  1979 11802s
   212    84 -556.97944   13  355 -557.49498 -536.53913  3.76%  1961 11805s
   218    82 -541.64260    5 1217 -557.49498 -536.53917  3.76%  1933 11845s
   219    83 -544.09651    6 1191 -557.49498 -536.53917  3.76%  1929 11857s
   220    82     cutoff    6      -557.49498 -536.53917  3.76%  1927 11877s
   221    83 -547.16390    7 1193 -557.49498 -536.53917  3.76%  1923 11886s
   222    82     cutoff    7      -557.49498 -536.53917  3.76%  1918 11896s
   223    83 -549.61781    8 1182 -557.49498 -536.53917  3.76%  1912 11902s
   224    84 -552.37846    9 1159 -557.49498 -536.53917  3.76%  1906 11909s
   225    85 -553.75879   10 1059 -557.49498 -536.53917  3.76%  1899 11913s
   226    86 -555.11401   11  436 -557.49498 -536.53917  3.76%  1891 11915s
   231    86 -556.97955   14  267 -557.49498 -536.53917  3.76%  1852 11920s
   236    85 -542.25693    6 1225 -557.49498 -537.20123  3.64%  1828 11945s
   237    86 -544.71084    7 1197 -557.49498 -537.20123  3.64%  1824 11953s
   238    87 -547.77823    8 1178 -557.49498 -537.20123  3.64%  1821 11963s
   239    88 -550.53888    9 1165 -557.49498 -537.20123  3.64%  1818 11974s
   240    89 -551.91920   10 1074 -557.49498 -537.20123  3.64%  1811 11976s
   241    90 -554.02566   11 1079 -557.49498 -537.20123  3.64%  1805 11980s
   244    93 -556.06018   14  296 -557.49498 -537.20123  3.64%  1783 11985s
   250    91 -544.24417    8 1202 -557.49498 -537.20449  3.64%  1761 12017s
   251    92 -547.00482    9 1206 -557.49498 -537.20449  3.64%  1758 12028s
   252    93 -549.29909   10 1193 -557.49498 -537.20449  3.64%  1753 12036s
   254    95 -550.68569   12 1073 -557.49498 -537.20449  3.64%  1740 12040s
   255    96 -552.52612   13  995 -557.49498 -537.20449  3.64%  1736 12045s
   259    94     cutoff   14      -557.49498 -537.20449  3.64%  1712 12052s
   261    94 -543.63037    7 1211 -557.49498 -537.20553  3.64%  1709 12072s
   262    95 -546.39103    8 1206 -557.49498 -537.20553  3.64%  1706 12081s
   263    96 -549.76515    9 1188 -557.49498 -537.20553  3.64%  1702 12087s
   264    97 -551.14548   10 1160 -557.49498 -537.20553  3.64%  1696 12090s
   266    97 -553.90613   11 1149 -557.49498 -537.20553  3.64%  1687 12097s
   268    97 -556.20667   12 1140 -557.49498 -537.20553  3.64%  1676 12100s
   272    97 -557.12689   14  351 -557.49498 -537.20553  3.64%  1652 12105s
   276    95 -544.85765    9 1199 -557.49498 -537.25021  3.63%  1644 12133s
   277    96 -547.31156   10 1170 -557.49498 -537.25021  3.63%  1641 12140s
   278    97 -550.22558   11 1177 -557.49498 -537.25021  3.63%  1637 12147s
   279    98 -552.98623   12 1162 -557.49498 -537.25021  3.63%  1634 12156s
   281    98     cutoff   14      -557.49498 -537.25021  3.63%  1625 12161s
   284    95     cutoff   12      -557.49498 -537.25021  3.63%  1610 12167s
   285    94     cutoff   32      -557.49498 -537.28009  3.63%  1614 12183s
   286    93     cutoff   31      -557.49498 -538.22615  3.46%  1611 12193s
   287    92     cutoff   34      -557.49498 -538.44593  3.42%  1609 12203s
   288    93 -544.90252   11 2209 -557.49498 -538.45173  3.42%  1609 12211s
   289    94 -547.02925   12 1715 -557.49498 -538.45173  3.42%  1606 12222s
   291    96 -547.13964   14 1321 -557.49498 -538.45173  3.42%  1596 12226s
   292    97 -547.80192   15 1309 -557.49498 -538.45173  3.42%  1593 12235s
   294    99 -550.20665   17 1216 -557.49498 -538.45173  3.42%  1586 12246s
   295   100 -553.42740   18 1201 -557.49498 -538.45173  3.42%  1582 12252s
   297   101 -557.10827   20 1160 -557.49498 -538.45173  3.42%  1572 12257s
H  301    93                    -556.6851851 -538.45173  3.28%  1552 12267s
   302    96 -542.57519   12 1201 -556.68519 -539.50780  3.09%  1556 12283s
   303    97 -544.26226   13 1195 -556.68519 -539.50780  3.09%  1554 12291s
   304    98 -546.56280   14 1177 -556.68519 -539.50780  3.09%  1552 12300s
   305    99 -549.32345   15 1155 -556.68519 -539.50780  3.09%  1552 12316s
   306   100 -552.07573   16 1149 -556.68519 -539.50780  3.09%  1556 12335s
   308   102 -553.00432   18  285 -556.68519 -539.50780  3.09%  1549 12344s
*  309    91              19    -554.8447513 -539.50780  2.76%  1545 12348s
   310    92 -553.92453   19  252 -554.84475 -539.50780  2.76%  1540 12352s
   313    89     cutoff   18      -554.84475 -539.50780  2.76%  1528 12358s
   314    88     cutoff   12      -554.84475 -540.91853  2.51%  1720 13736s
   315    89 -540.93108    7  924 -554.84475 -540.93108  2.51%  1715 13740s
   316    90 -549.43994    8 1081 -554.84475 -540.93108  2.51%  1756 13935s
   317    91 -549.44308    9 1022 -554.84475 -540.93108  2.51%  1751 13940s
   318    92 -551.05346   10  691 -554.84475 -540.93108  2.51%  1753 13955s
   319    93 -551.51357   11  905 -554.84475 -540.93108  2.51%  1750 13962s
   320    94 -551.97368   12  667 -554.84475 -540.93108  2.51%  1746 13966s
   321    95 -552.89390   13  618 -554.84475 -540.93108  2.51%  1741 13972s
   323    97 -553.81411   15  568 -554.84475 -540.93108  2.51%  1731 13977s
   324    98 -554.73433   16  524 -554.84475 -540.93108  2.51%  1727 13982s
   327   101 -554.73433   19  458 -554.84475 -540.93108  2.51%  1711 13985s
   334    94     cutoff   15      -554.84475 -540.93108  2.51%  1678 13991s
   335    95 -546.67929    8 1011 -554.84475 -540.97944  2.50%  1696 14083s
   336    96 -546.68243    9  987 -554.84475 -540.97944  2.50%  1692 14088s
   337    97 -548.29281   10  966 -554.84475 -540.97944  2.50%  1694 14109s
   338    98 -548.29281   11  677 -554.84475 -540.97944  2.50%  1689 14111s
   339    99 -549.21303   12  595 -554.84475 -540.97944  2.50%  1686 14120s
   341   101 -550.13324   14  502 -554.84475 -540.97944  2.50%  1677 14125s
   344   104 -551.05346   17  530 -554.84475 -540.97944  2.50%  1664 14130s
   346   106 -552.89390   19  429 -554.84475 -540.97944  2.50%  1656 14138s
   348   108 -552.89390   21  452 -554.84475 -540.97944  2.50%  1647 14140s
   350   110 -553.81411   23  390 -554.84475 -540.97944  2.50%  1638 14145s
   351   111 -554.73433   24  376 -554.84475 -540.97944  2.50%  1635 14150s
   356   106     cutoff   38      -554.84475 -540.97944  2.50%  1632 14192s
   357   105     cutoff   37      -554.84475 -541.87261  2.34%  1651 14269s
   358   104     cutoff   39      -554.84475 -542.25597  2.27%  1652 14283s
   359   103     cutoff    5      -554.84475 -542.25693  2.27%  1945 16733s
   360   102     cutoff    7      -554.84475 -542.67348  2.19%  2164 18432s
   361   101     cutoff   13      -554.84475 -543.63118  2.02%  2443 20955s
   362   100     cutoff    8      -554.84475 -543.69173  2.01%  2441 20971s
   363    99     cutoff   41      -554.84475 -544.25785  1.91%  2436 20975s
   364    98     cutoff    9      -554.84475 -544.61194  1.84%  2431 20982s
   365    97     cutoff   44      -554.84475 -544.66896  1.83%  2428 20989s
   366    96     cutoff   14      -554.84475 -544.70988  1.83%  2604 22349s
   367    95     cutoff    6      -554.84475 -544.75745  1.82%  2601 22362s
   368    94     cutoff    8      -554.84475 -544.89919  1.79%  2597 22372s
   369    93     cutoff   10      -554.84475 -544.99185  1.78%  2593 22381s
   370    92     cutoff   12      -554.84475 -546.32872  1.53%  2602 22432s
   371    91     cutoff   11      -554.84475 -546.41419  1.52%  2597 22442s
   372    90     cutoff    9      -554.84475 -546.45453  1.51%  2593 22450s
   373    89     cutoff   15      -554.84475 -546.45699  1.51%  2592 22467s
   374    90 -547.37259   15  648 -554.84475 -546.46028  1.51%  2587 22475s
   375    91 -548.29281   16  641 -554.84475 -546.46028  1.51%  2580 22480s
   376    92 -549.21303   17  615 -554.84475 -546.46028  1.51%  2575 22485s
   377    93 -550.13324   18  545 -554.84475 -546.46028  1.51%  2568 22490s
   378    94 -551.05346   19  493 -554.84475 -546.46028  1.51%  2562 22495s
   379    95 -551.94858   20  521 -554.84475 -546.46028  1.51%  2557 22500s
   381    95 -551.97368   21  457 -554.84475 -546.46028  1.51%  2544 22506s
   383    97 -552.89390   23  426 -554.84475 -546.46028  1.51%  2531 22510s
   384    98 -553.81411   24  389 -554.84475 -546.46028  1.51%  2525 22515s
   385    99 -554.73433   25  347 -554.84475 -546.46028  1.51%  2520 22520s
   389    95     cutoff   24      -554.84475 -546.46028  1.51%  2496 22525s
   390    94     cutoff   48      -554.84475 -546.63583  1.48%  2492 22531s
   391    93     cutoff   15      -554.84475 -546.67929  1.47%  2488 22538s
   392    92     cutoff    9      -554.84475 -546.68243  1.47%  2565 23033s
   393    91     cutoff   10      -554.84475 -547.00482  1.41%  2626 23389s
   394    90     cutoff   10      -554.84475 -547.13968  1.39%  2620 23395s
   395    91 -549.59359   14 1220 -554.84475 -547.14042  1.39%  2619 23406s
   396    92 -552.25200   15 1218 -554.84475 -547.14042  1.39%  2619 23419s
   397    91     cutoff   16      -554.84475 -547.14042  1.39%  2615 23426s
   399    89     cutoff   15      -554.84475 -547.14042  1.39%  2604 23434s
   400    90 -548.36738   15 1210 -554.84475 -547.16380  1.38%  2603 23445s
   401    91 -551.74151   16 1208 -554.84475 -547.16380  1.38%  2600 23456s
   402    90     cutoff   16      -554.84475 -547.16380  1.38%  2596 23465s
   403    91 -554.80890   17 1199 -554.84475 -547.16380  1.38%  2593 23475s
   407    87     cutoff    7      -554.84475 -547.16390  1.38%  2570 23484s
   408    86     cutoff    8      -554.84475 -547.25649  1.37%  2566 23490s
   410    86 -547.37259   24  698 -554.84475 -547.37259  1.35%  2555 23496s
   411    87 -552.89390   25  590 -554.84475 -547.37259  1.35%  2552 23512s
   412    88 -553.81411   26  589 -554.84475 -547.37259  1.35%  2547 23515s
   413    87     cutoff   27      -554.84475 -547.37259  1.35%  2543 23520s
   416    86 -553.78901   25  625 -554.84475 -547.37259  1.35%  2536 23546s
   418    86 -553.81411   26  582 -554.84475 -547.37259  1.35%  2524 23551s
   422    84     cutoff   27      -554.84475 -547.37259  1.35%  2501 23555s
   423    85 -553.81411   24  723 -554.84475 -547.37259  1.35%  2505 23581s
   424    86 -554.73433   25  647 -554.84475 -547.37259  1.35%  2501 23585s
   428    82     cutoff   16      -554.84475 -547.37964  1.35%  2496 23653s
   429    81     cutoff   11      -554.84475 -547.43079  1.34%  2493 23662s
   431    79     cutoff    9      -554.84475 -547.82133  1.27%  2484 23669s
   432    80 -553.42159   16 1216 -554.84475 -547.84462  1.26%  2487 23697s
   433    79     cutoff   17      -554.84475 -547.84462  1.26%  2486 23707s
   434    78     cutoff   17      -554.84475 -547.84462  1.26%  2482 23711s
   435    79 -549.12745   17 1298 -554.84475 -547.87905  1.26%  2478 23717s
   436    80 -549.78980   18 1297 -554.84475 -547.87905  1.26%  2474 23724s
   437    81 -550.28069   19 1292 -554.84475 -547.87905  1.26%  2470 23728s
   438    82 -552.19474   20 1212 -554.84475 -547.87905  1.26%  2466 23735s
   439    83 -554.64865   21 1197 -554.84475 -547.87905  1.26%  2462 23742s
   442    80     cutoff   21      -554.84475 -547.87905  1.26%  2447 23747s
   443    81 -552.58737   20 1316 -554.84475 -547.87905  1.26%  2446 23759s
   444    80     cutoff   21      -554.84475 -547.87905  1.26%  2451 23779s
   445    79     cutoff   21      -554.84475 -547.87905  1.26%  2446 23781s
   446    78     cutoff    4      -554.84475 -548.26771  1.19%  2601 25141s
   447    79 -550.12069    5  784 -554.84475 -548.26771  1.19%  2598 25150s
   449    81 -552.89390    7  679 -554.84475 -548.26771  1.19%  2588 25160s
   451    79     cutoff    8      -554.84475 -548.26771  1.19%  2578 25166s
   452    78     cutoff    7      -554.84475 -548.26771  1.19%  2577 25179s
   453    77     cutoff    6      -554.84475 -548.26771  1.19%  2573 25189s
   454    76     cutoff    5      -554.84475 -548.29281  1.18%  2570 25199s
   455    75     cutoff   11      -554.84475 -548.29281  1.18%  2567 25210s
   456    74     cutoff   12      -554.84475 -548.29801  1.18%  2586 25340s
   457    73     cutoff   17      -554.84475 -548.77105  1.09%  2582 25345s
   458    72     cutoff    8      -554.84475 -549.12767  1.03%  2578 25350s
   459    73 -551.58158   18 1221 -554.84475 -549.21303  1.02%  2577 25367s
   460    74 -554.64897   19 1220 -554.84475 -549.21303  1.02%  2574 25376s
   462    72     cutoff   20      -554.84475 -549.21303  1.02%  2564 25380s
   464    70     cutoff   13      -554.84475 -549.21303  1.02%  2555 25388s
   465    69     cutoff   18      -554.84475 -549.21303  1.02%  2550 25390s
   466    68     cutoff   14      -554.84475 -549.21303  1.02%  2547 25400s
   468    66     cutoff   53      -554.84475 -549.32345  1.00%  2538 25405s
   469    65     cutoff   16      -554.84475 -549.32954  0.99%  2534 25411s
   470    64     cutoff   11      -554.84475 -549.33916  0.99%  2530 25415s
   471    63     cutoff   12      -554.84475 -549.40918  0.98%  2527 25420s
   473    61     cutoff   10      -554.84475 -549.45678  0.97%  2561 25661s
   474    60     cutoff    9      -554.84475 -549.81023  0.91%  2557 25670s
   476    60 -553.56861   19 1217 -554.84475 -550.08402  0.86%  2552 25686s
   477    59     cutoff   20      -554.84475 -550.08402  0.86%  2548 25690s
   479    57     cutoff   30      -554.84475 -550.10355  0.85%  2541 25698s
   480    58 -550.13324   30  568 -554.84475 -550.13324  0.85%  2535 25702s
   481    59 -553.81411   31  539 -554.84475 -550.13324  0.85%  2535 25715s
   484    58 -554.73433   31  557 -554.84475 -550.13324  0.85%  2523 25727s
   487    55     cutoff   56      -554.84475 -550.13324  0.85%  2508 25730s
   489    53     cutoff   16      -554.84475 -550.14609  0.85%  2500 25737s
   490    52     cutoff   15      -554.84475 -550.22076  0.83%  2497 25743s
   492    50     cutoff    9      -554.84475 -550.31718  0.82%  2487 25748s
   493    49     cutoff    5      -554.84475 -550.33277  0.81%  2484 25751s
   494    50 -553.78901    9  860 -554.84475 -550.54048  0.78%  2485 25767s
   495    51 -553.81411   10  683 -554.84475 -550.54048  0.78%  2481 25771s
   497    49     cutoff   11      -554.84475 -550.54048  0.78%  2472 25776s
   499    47     cutoff   10      -554.84475 -551.00326  0.69%  2463 25781s
   501    47 -551.92348    8  664 -554.84475 -551.05346  0.68%  2456 25792s
   502    48 -552.84369    9  616 -554.84475 -551.05346  0.68%  2452 25798s
   504    50 -553.76391   11  460 -554.84475 -551.05346  0.68%  2443 25801s
   505    51 -554.68413   12  430 -554.84475 -551.05346  0.68%  2439 25805s
   511    47     cutoff   19      -554.84475 -551.05346  0.68%  2412 25812s
   512    46     cutoff   11      -554.84475 -551.05346  0.68%  2408 25815s
   515    43     cutoff   20      -554.84475 -551.05346  0.68%  2395 25821s
   516    42     cutoff   17      -554.84475 -551.05346  0.68%  2392 25825s
   518    40     cutoff    9      -554.84475 -551.51357  0.60%  2384 25830s
   521    37     cutoff    9      -554.84475 -551.97368  0.52%  2372 25836s
   523    35     cutoff   13      -554.84475 -551.97368  0.52%  2366 25847s
   525    33     cutoff   19      -554.84475 -551.97510  0.52%  2359 25853s
   526    32     cutoff   23      -554.84475 -552.00496  0.51%  2354 25855s
   528    30     cutoff   17      -554.84475 -552.15762  0.48%  2347 25862s
   530    28     cutoff   11      -554.84475 -552.37846  0.44%  2339 25865s
   534    26 -554.73433   23  476 -554.84475 -552.89390  0.35%  2326 25881s
   538    22     cutoff   27      -554.84475 -552.89390  0.35%  2310 25886s
   540    20     cutoff   22      -554.84475 -552.89390  0.35%  2302 25891s
   542    18     cutoff   21      -554.84475 -552.89804  0.35%  2295 25895s
   546    14     cutoff   14      -554.84475 -553.66673  0.21%  2280 25900s
   549    11     cutoff    3      -554.84475 -553.76391  0.19%  2268 25905s
   551     9     cutoff    9      -554.84475 -553.81411  0.19%  2262 25913s
   553     7     cutoff   30      -554.84475 -553.82176  0.18%  2255 25915s
   560     0     cutoff   31      -554.84475 -554.84475  0.00%  2227 25920s

Cutting planes:
  Gomory: 1
  MIR: 2
  StrongCG: 1
  Zero half: 812

Explored 561 nodes (1483155 simplex iterations) in 25921.00 seconds
Thread count was 1 (of 80 available processors)

Solution count 4: -554.845 -556.685 -557.495 -18990.3 

Optimal solution found (tolerance 1.00e-04)
Best objective -5.548447513202e+02, best bound -5.548447513202e+02, gap 0.0000%
